examples/dynamic/debug6/BDC_ProveIneq_JSC_SUMCracker_20.smt2
(set-info :smt-lib-version 2.6)
(set-logic QF_NRA)
(set-info :source |
Generated by: Ali K. Uncu, Matthew England, and James H. Davenport
Generated on: 2022-02-03

Generator: SUMCracker-ProveInequality function by Manuel Kauers ("https://www3.risc.jku.at/research/combinat/software/ergosum/RISC/SumCracker.html")
Translated to SMT-Lib by Maple SMTLIB package.

Application: CAD calls of In[20] on page 13 in
M. Kauers, SumCracker: A Package for Manipulating Symbolic Sums and Related Objects, 
Journal of Symbolic Computation 41(9), 2006, pp. 1039-1057. 
(https://www.sciencedirect.com/science/article/pii/S0747717106000502)

All denominators in the original CAD call got cleared in a simple way:
a/b == c/d --> a d==b c && b<>0 && d<>0
a/b > c/d --> a d^2 >=b^2 c && b<>0 && d<>0
|)
(set-info :license "https://creativecommons.org/licenses/by/4.0/")
(set-info :status unsat)
(set-info :category "industrial")

(declare-fun V1 () Real)
(declare-fun V2 () Real)
(declare-fun V3 () Real)
(declare-fun V4 () Real)
(declare-fun x () Real)
(assert (and (<= (- 1) x) (<= x 1) (<= 0 V3) (<= 0 (+ 1 V3)) (<= 0 (* (+ 2 V3) (+ (* (* x V1 V2 V3) (- 2)) (* (* V1 V1) V3) (* (* x V1 V2) (- 3)) (* (* V2 V2) V3) (* V1 V1) (* (* V2 V2) 2)))) (<= 0 (+ 1 V4)) (<= 0 (+ 2 V4)) (< (* (* (+ 2 V3) (+ 2 V3)) (+ 3 V3) (+ (* (* x V1 V2 (* V3 V3 V3)) (- 2)) (* (* V1 V1) (* V3 V3 V3)) (* (* x V1 V2 (* V3 V3)) (- 11)) (* (* V2 V2) (* V3 V3 V3)) (* (* (* x x) (* V2 V2) V3) (- 2)) (* (* (* V1 V1) (* V3 V3)) 5) (* (* x V1 V2 V3) (- 17)) (* (* (* V2 V2) (* V3 V3)) 6) (* (* (* x x) (* V2 V2)) (- 3)) (* (* (* V1 V1) V3) 7) (* (* x V1 V2) (- 8)) (* (* (* V2 V2) V3) 12) (* (* V1 V1) 3) (* (* V2 V2) 8))) 0) (not (= (+ 2 V3) 0)) (not (= (* (* (+ 2 V3) (+ 2 V3)) (+ 3 V3)) 0))))
(check-sat)
(exit)













